solution status: optimal solution found
objective value:                                    0
shell_i_thingy.thingy.chamber[1].first.voutlet                    1 	(obj:0)
shell_j_thingy.thingy.chamber[1].first.vcollect                    1 	(obj:0)
shell_i_thingy.thingy.chamber[2].first.vbead                    1 	(obj:0)
shell_j_thingy.thingy.prep.vout1                    1 	(obj:0)
shell_j_thingy.thingy.chamber[0].first.vbead                    1 	(obj:0)
shell_j_thingy.thingy.vinlet.valves[1].vinlet                    1 	(obj:0)
shell_i_thingy.thingy.chamber[2].first.vinlet                    1 	(obj:0)
shell_i_thingy.thingy.chamber[3].first.vinlet                    1 	(obj:0)
shell_i_thingy.thingy.prep.vout2                    1 	(obj:0)
shell_j_thingy.thingy.chamber[0].first.voutlet                    1 	(obj:0)
shell_j_thingy.thingy.vinlet.valves[3].vinlet                    1 	(obj:0)
shell_i_thingy.thingy.chamber[3].first.voutlet                    1 	(obj:0)
shell_i_thingy.thingy.chamber[3].first.vcollect                    1 	(obj:0)
shell_j_thingy.thingy.chamber[0].first.vinlet                    1 	(obj:0)
shell_j_thingy.thingy.chamber[0].first.vcollect                    1 	(obj:0)
shell_i_thingy.thingy.vinlet.valves[4].vinlet                    1 	(obj:0)
shell_i_thingy.thingy.chamber[2].first.vcollect                    1 	(obj:0)
shell_i_thingy.thingy.chamber[1].first.vinlet                    1 	(obj:0)
shell_i_thingy.thingy.chamber[3].first.vbead                    1 	(obj:0)
shell_j_thingy.thingy.vinlet.valves[0].vinlet                    1 	(obj:0)
shell_j_thingy.thingy.chamber[1].first.vbead                    1 	(obj:0)
shell_j_thingy.thingy.vinlet.valves[2].vinlet                    1 	(obj:0)
shell_i_thingy.thingy.chamber[2].first.voutlet                    1 	(obj:0)
thingy.thingy.chamber[0].first.voutlet_y                    9 	(obj:0)
thingy.thingy.chamber[0].first.voutlet_z                   24 	(obj:0)
thingy.thingy.chamber[1].first.vcollect_y                    9 	(obj:0)
thingy.thingy.chamber[1].first.vcollect_z                   24 	(obj:0)
thingy.thingy.vinlet.valves[3].vinlet_x                    9 	(obj:0)
thingy.thingy.vinlet.valves[3].vinlet_y                    9 	(obj:0)
thingy.thingy.vinlet.valves[3].vinlet_z                   21 	(obj:0)
thingy.thingy.chamber[0].first.vbead_x                    6 	(obj:0)
thingy.thingy.chamber[0].first.vbead_y                    9 	(obj:0)
thingy.thingy.chamber[3].first.voutlet_x                    9 	(obj:0)
thingy.thingy.chamber[3].first.voutlet_y                    5 	(obj:0)
thingy.thingy.chamber[3].first.voutlet_z                   18 	(obj:0)
thingy.thingy.chamber[0].first.vbead_z                   25 	(obj:0)
thingy.thingy.chamber[1].first.voutlet_z                   24 	(obj:0)
thingy.thingy.chamber[3].first.vcollect_x                    9 	(obj:0)
thingy.thingy.chamber[3].first.vcollect_y                    5 	(obj:0)
thingy.thingy.chamber[3].first.vcollect_z                   20 	(obj:0)
thingy.thingy.chamber[1].first.voutlet_x                    9 	(obj:0)
thingy.thingy.vinlet.valves[1].vinlet_x                    9 	(obj:0)
thingy.thingy.chamber[0].first.vinlet_x                    7 	(obj:0)
thingy.thingy.chamber[0].first.vinlet_y                    9 	(obj:0)
thingy.thingy.chamber[0].first.vinlet_z                   25 	(obj:0)
thingy.thingy.vinlet.valves[1].vinlet_y                    9 	(obj:0)
thingy.thingy.vinlet.valves[1].vinlet_z                   23 	(obj:0)
thingy.thingy.chamber[0].first.vcollect_x                    8 	(obj:0)
thingy.thingy.chamber[0].first.vcollect_y                    9 	(obj:0)
thingy.thingy.chamber[0].first.vcollect_z                   25 	(obj:0)
thingy.thingy.chamber[2].first.vbead_x                    9 	(obj:0)
thingy.thingy.chamber[2].first.vbead_y                    7 	(obj:0)
thingy.thingy.vinlet.valves[4].vinlet_x                    9 	(obj:0)
thingy.thingy.vinlet.valves[4].vinlet_y                    8 	(obj:0)
thingy.thingy.vinlet.valves[4].vinlet_z                   21 	(obj:0)
thingy.thingy.chamber[2].first.vinlet_x                    9 	(obj:0)
thingy.thingy.chamber[2].first.vinlet_y                    7 	(obj:0)
thingy.thingy.chamber[2].first.vcollect_x                    9 	(obj:0)
thingy.thingy.chamber[2].first.vcollect_y                    7 	(obj:0)
thingy.thingy.chamber[2].first.vcollect_z                   22 	(obj:0)
thingy.thingy.chamber[2].first.vinlet_z                   21 	(obj:0)
thingy.thingy.chamber[2].first.vbead_z                   23 	(obj:0)
thingy.thingy.chamber[1].first.vinlet_x                    9 	(obj:0)
thingy.thingy.chamber[1].first.vinlet_y                    8 	(obj:0)
thingy.thingy.chamber[1].first.vinlet_z                   24 	(obj:0)
thingy.thingy.chamber[1].first.voutlet_y                    7 	(obj:0)
thingy.thingy.chamber[3].first.vinlet_x                    9 	(obj:0)
thingy.thingy.chamber[3].first.vbead_x                    9 	(obj:0)
thingy.thingy.chamber[3].first.vbead_y                    5 	(obj:0)
thingy.thingy.chamber[3].first.vbead_z                   21 	(obj:0)
thingy.thingy.chamber[3].first.vinlet_y                    5 	(obj:0)
thingy.thingy.chamber[3].first.vinlet_z                   19 	(obj:0)
thingy.thingy.vinlet.valves[0].vinlet_x                    9 	(obj:0)
thingy.thingy.vinlet.valves[0].vinlet_y                    9 	(obj:0)
thingy.thingy.vinlet.valves[0].vinlet_z                   24 	(obj:0)
thingy.thingy.chamber[1].first.vcollect_x                    5 	(obj:0)
thingy.thingy.prep.vout1_x                          9 	(obj:0)
thingy.thingy.chamber[1].first.vbead_x                    5 	(obj:0)
thingy.thingy.chamber[1].first.vbead_y                    9 	(obj:0)
thingy.thingy.chamber[1].first.vbead_z                   25 	(obj:0)
thingy.thingy.prep.vout2_x                          9 	(obj:0)
thingy.thingy.prep.vout2_y                          6 	(obj:0)
thingy.thingy.vinlet.valves[2].vinlet_x                    9 	(obj:0)
thingy.thingy.vinlet.valves[2].vinlet_y                    9 	(obj:0)
thingy.thingy.vinlet.valves[2].vinlet_z                   22 	(obj:0)
thingy.thingy.prep.vout2_z                         24 	(obj:0)
thingy.thingy.prep.vout1_y                          9 	(obj:0)
thingy.thingy.chamber[2].first.voutlet_x                    9 	(obj:0)
thingy.thingy.chamber[2].first.voutlet_y                    6 	(obj:0)
thingy.thingy.chamber[2].first.voutlet_z                   21 	(obj:0)
thingy.thingy.prep.vout1_z                         25 	(obj:0)
thingy.thingy.chamber[0].first.voutlet_x                    6 	(obj:0)
